Maximize
  NxS_e0 + NxS_e1 + NxS_e3 + NxS_e4 + NxS_e5 + NxS_e6 + NxS_e7 + NxS_e8
Subject to
  -S_BB_1 + S_e_0 = 0
  -S_BB_1 = 0
  -S_BB_2 + S_e_1 = 0
  -S_BB_2 + S_e_0 + S_e_7 = 0
  -S_BB_3 + S_e_3 = 0
  -S_BB_3 + S_e_1 = 0
  -S_BB_4 + S_e_4 = 0
  -S_BB_4 + S_e_3 = 0
  -S_BB_5 + S_e_5 + S_e_6 = 0
  -S_BB_5 + S_e_4 + S_e_5 = 0
  -S_BB_6 + S_e_7 + S_e_8 = 0
  -S_BB_6 + S_e_6 = 0
  -S_BB_7 = 0
  -S_BB_7 + S_e_8 = 0
  NxS_e0 - N <= 0
  -291 S_e_0 + NxS_e0 <= 0
  -291 S_e_0 + NxS_e0 - N >= -291
  -290 S_e_0 - N >= -291
  NxS_e1 - N <= 0
  -291 S_e_1 + NxS_e1 <= 0
  -291 S_e_1 + NxS_e1 - N >= -291
  -288 S_e_1 - N >= -291
  NxS_e3 - N <= 0
  -291 S_e_3 + NxS_e3 <= 0
  -291 S_e_3 + NxS_e3 - N >= -291
  -288 S_e_3 - N >= -291
  NxS_e4 - N <= 0
  -291 S_e_4 + NxS_e4 <= 0
  -291 S_e_4 + NxS_e4 - N >= -291
  -288 S_e_4 - N >= -291
  NxS_e5 - N <= 0
  -291 S_e_5 + NxS_e5 <= 0
  -291 S_e_5 + NxS_e5 - N >= -291
  -N >= -291
  NxS_e6 - N <= 0
  -291 S_e_6 + NxS_e6 <= 0
  -291 S_e_6 + NxS_e6 - N >= -291
  -288 S_e_6 - N >= -291
  NxS_e7 - N <= 0
  -291 S_e_7 + NxS_e7 <= 0
  -291 S_e_7 + NxS_e7 - N >= -291
  -289 S_e_7 - N >= -291
  NxS_e8 - N <= 0
  -291 S_e_8 + NxS_e8 <= 0
  -291 S_e_8 + NxS_e8 - N >= -291
  -290 S_e_8 - N >= -291
  S_e_5 + S_e_7 = 1
Bounds
  0 <= NxS_e0 <= 1
  0 <= NxS_e1 <= 3
  0 <= NxS_e3 <= 3
  0 <= NxS_e4 <= 3
  0 <= NxS_e5 <= 291
  0 <= NxS_e6 <= 3
  0 <= NxS_e7 <= 2
  0 <= NxS_e8 <= 1
  0 <= N <= 291
General
  N
Binary
  S_BB_1 S_BB_2 S_BB_3 S_BB_4 S_BB_5 S_BB_6 S_BB_7 S_e_0 S_e_1 S_e_3 S_e_4 S_e_5 S_e_6 S_e_7 S_e_8
End
